NAME: burma14
TYPE: TSP
COMMENT: 14-Staedte in Burma (Zaw Win)
DIMENSION: 14
EDGE_WEIGHT_TYPE: GEO
EDGE_WEIGHT_FORMAT: FUNCTION 
DISPLAY_DATA_TYPE: COORD_DISPLAY
NODE_COORD_SECTION
1 15.00 98.00
2 16.00 96.00
3 15.50 99.50
4 17.00 99.00
5 18.00 98.00
6 17.00 97.00
7 15.00 96.50
EOF